NAME : bier127.tsp
TYPE : TOUR
DIMENSION : 127
TOUR_LENGTH : 125413.83531163781
TOUR_SECTION
1
16
37
36
41
14
12
31
27
30
43
34
39
42
40
35
2
51
57
54
45
103
44
121
5
56
124
52
50
13
115
10
3
90
116
60
62
61
91
58
64
100
59
67
73
74
68
71
70
69
75
76
78
117
84
81
126
82
83
102
101
63
119
96
109
87
88
86
85
110
104
125
89
92
99
65
113
66
55
47
49
118
48
53
46
94
112
111
107
127
93
95
123
97
98
38
26
25
33
122
28
29
32
80
79
77
18
21
17
22
4
23
24
6
106
15
108
20
19
72
8
9
11
114
105
7
120
-1
